100
[10,11,12,13,14,15,16,17,18,19,20,21,22,23,24,25,26,27,28,29,30,31,32,33,34,35,36,37,38,39,40,41,42,43,44,45,46,47,48,49,50,51,52,53,54,55,56,57,58,59,60,61,62,63,64,65,66,67,68,69,70]
[9,10,7,7,9,9,9,5,7,4,6,13,9,13,9,3,6,4,10,9,9,6,16,12,7,13,6,7,8,5,6,7,8,7,6,8,9,6,11,10,11,5,11,12,4,7,11,9,8,6,8,12,3,10,7,5,9,9,14,7,7]
